SCIP version 5.0.0 [precision: 8 byte] [memory: block] [mode: optimized] [LP solver: NONE] [GitHash: 3bbd232]
Copyright (C) 2002-2017 Konrad-Zuse-Zentrum fuer Informationstechnik Berlin (ZIB)

External codes: 
  Readline EditLine w  GNU library for command line editing (gnu.org/s/readline)
  CppAD 20160000.1     Algorithmic Differentiation of C++ algorithms developed by B. Bell (www.coin-or.org/CppAD)
  ZLIB 1.2.5           General purpose compression library by J. Gailly and M. Adler (zlib.net)
  GMP 6.1.2            GNU Multiple Precision Arithmetic Library developed by T. Granlund (gmplib.org)

user parameter file <scip.set> not found - using default parameters

read problem <../../Split_data/output/parkin/1/1_sample_parkin.logreg>
============

File name	:	../../Split_data/output/parkin/1/1_sample_parkin.logreg
Problem name 	:	1_sample_parkin
Number of data	:	156
Number of var	:	22
The given data has linear independence

[dim=1] time: 0.003632
[dim=2] time: 0.006848
[dim=3] time: 0.009374
[dim=4] time: 0.011756
[dim=5] Time of forward = 0.014001sec.
AIC: 99.2936
k: 4

[dim=22] time: 0.074889
[dim=21] time: 0.18229
[dim=20] time: 0.188277
[dim=19] time: 0.192135
[dim=18] time: 0.22748
[dim=17] time: 0.242143
[dim=16] time: 0.24597
[dim=15] time: 0.257951
[dim=14] time: 0.270561
[dim=13] time: 0.27343
[dim=12] time: 0.282202
[dim=11] time: 0.284391
[dim=10] time: 0.286173
[dim=9] time: 0.287725
[dim=8] time: 0.289113
[dim=7] Time of backward = 0.290326sec.
AIC: 95.8578
k: 8
